(set-logic QF_BV)
(declare-fun _substvar_79_ () (_ BitVec 159))
(declare-fun _substvar_108_ () (_ BitVec 159))
(declare-fun _substvar_117_ () (_ BitVec 159))
(declare-fun _substvar_123_ () (_ BitVec 159))
(declare-fun _substvar_122_ () (_ BitVec 159))
(declare-fun _substvar_210_ () Bool)
(declare-fun _substvar_114_ () (_ BitVec 159))
(assert (and true true true true true true true true true true true true true true true true true true true true true true true true true true true true true true true true true true true true true true true true true true true true true true true true true true true true true true true true true true (= _substvar_117_ (_ bv0 159)) (ite _substvar_210_ (= _substvar_122_ (_ bv0 159)) (= _substvar_122_ (concat ((_ extract 157 0) _substvar_117_) (_ bv0 1)))) (= _substvar_108_ (concat ((_ extract 157 0) _substvar_122_) (bvxor ((_ extract 158 158) _substvar_122_) ((_ extract 127 127) _substvar_122_)))) (= _substvar_114_ (concat ((_ extract 157 0) _substvar_108_) (_ bv0 1))) (= _substvar_123_ (concat (_ bv0 158) (bvxor (_ bv0 1) ((_ extract 127 127) _substvar_114_)))) (= _substvar_79_ (concat ((_ extract 157 0) _substvar_123_) (_ bv0 1))) true true true (= (= (_ bv0 159) _substvar_79_) false)))
(check-sat)
(exit)
